
Gurobi 10.0.1 (linux64) logging started Sun Nov 26 15:37:25 2023

Set parameter LogFile to value "ArtificialInstance/ExperimentV2/S2T3K2/AdSp/gurobi1.txt"
Gurobi Optimizer version 10.0.1 build v10.0.1rc0 (linux64)

CPU model: AMD EPYC 7H12 64-Core Processor, instruction set [SSE2|AVX|AVX2]
Thread count: 128 physical cores, 128 logical processors, using up to 32 threads

Academic license 656792 - for non-commercial use only - registered to b.___@student.vu.nl
Optimize a model with 5068 rows, 5049 columns and 19015 nonzeros
Model fingerprint: 0xadcd3799
Variable types: 0 continuous, 5049 integer (5049 binary)
Coefficient statistics:
  Matrix range     [1e+00, 1e+00]
  Objective range  [2e+00, 2e+01]
  Bounds range     [1e+00, 1e+00]
  RHS range        [1e+00, 1e+00]
Presolve removed 784 rows and 813 columns
Presolve time: 0.08s
Presolved: 4284 rows, 4236 columns, 16431 nonzeros
Variable types: 0 continuous, 4236 integer (4236 binary)

Root relaxation: objective 4.936678e+01, 2311 iterations, 0.09 seconds (0.07 work units)

    Nodes    |    Current Node    |     Objective Bounds      |     Work
 Expl Unexpl |  Obj  Depth IntInf | Incumbent    BestBd   Gap | It/Node Time

     0     0   49.36678    0  231          -   49.36678      -     -    0s
H    0     0                     231.8897184   49.36678  78.7%     -    0s
H    0     0                     106.5241898   49.36678  53.7%     -    0s
     0     0   51.28034    0  151  106.52419   51.28034  51.9%     -    0s
H    0     0                      55.7320358   51.28034  7.99%     -    0s
H    0     0                      51.4617219   51.28034  0.35%     -    0s
     0     0     cutoff    0        51.46172   51.46172  0.00%     -    0s

Cutting planes:
  Gomory: 4
  Zero half: 6

Explored 1 nodes (4797 simplex iterations) in 0.38 seconds (0.24 work units)
Thread count was 32 (of 128 available processors)

Solution count 4: 51.4617 55.732 106.524 231.89 

Optimal solution found (tolerance 1.00e-04)
Best objective 5.146172189898e+01, best bound 5.146172189898e+01, gap 0.0000%
